!RKS B3LYP DEF2-SVP PrintBasis Opt AutoAux RIJCOSX FREQ

%pal
  nprocs 4
end

%MaxCore   4000

* xyz 0 1
C          1.67810        2.87920        0.76400
C          2.80900        3.37580        0.10430
C          3.37960        4.58220        0.47490
C          2.83680        5.30580        1.52680
C          1.73010        4.82560        2.19660
C          1.15930        3.63110        1.81580
C          0.98690        1.59430        0.42160
C          4.25070        1.72220       -0.71520
C          4.73550        1.06720       -1.97000
H          0.90520       -0.01320       -0.91700
H          4.13390        4.86720        0.01590
H          3.25680        6.19830        1.84530
H          1.36520        5.31510        2.91300
H          0.41600        3.34480        2.25670
H          3.80490        0.79550       -2.67610
H          5.11900        0.24410       -1.92350
H          5.15880        1.51910       -2.45050
O          0.01490        1.23740        1.09490
O          1.43290        0.91490       -0.57580
O          3.36290        2.71760       -1.00200
O          4.57610        1.45050        0.38880
*


